
Log started (V12.10.0.0) Fri Apr  2 09:21:18 2021

Warning, line 2754: Name 's63' does not exist.
Warning, line 2755: Name 's188' does not exist.

Problem 'asset.lp' read.
Read time = 0.00 sec. (0.26 ticks)
New value for default parallel thread count: 1
New value for time limit in seconds: 300
Version identifier: 12.10.0.0 | 2019-11-26 | 843d4de
CPXPARAM_Threads                                 1
CPXPARAM_TimeLimit                               300
Found incumbent of value -0.880197 after 0.00 sec. (0.12 ticks)
Tried aggregator 3 times.
MIP Presolve eliminated 468 rows and 179 columns.
MIP Presolve modified 2130 coefficients.
Aggregator did 845 substitutions.
Reduced MIP has 1049 rows, 1154 columns, and 5299 nonzeros.
Reduced MIP has 1028 binaries, 77 generals, 0 SOSs, and 0 indicators.
Presolve time = 0.01 sec. (9.56 ticks)
Probing fixed 161 vars, tightened 10 bounds.
Probing time = 0.01 sec. (4.41 ticks)
Cover probing fixed 0 vars, tightened 107 bounds.
Tried aggregator 1 time.
MIP Presolve eliminated 194 rows and 189 columns.
MIP Presolve modified 512 coefficients.
Reduced MIP has 855 rows, 965 columns, and 4050 nonzeros.
Reduced MIP has 849 binaries, 67 generals, 0 SOSs, and 0 indicators.
Presolve time = 0.00 sec. (3.79 ticks)
Probing time = 0.00 sec. (2.52 ticks)
Tried aggregator 1 time.
Detecting symmetries...
MIP Presolve modified 272 coefficients.
Reduced MIP has 855 rows, 965 columns, and 4050 nonzeros.
Reduced MIP has 849 binaries, 67 generals, 0 SOSs, and 0 indicators.
Presolve time = 0.00 sec. (2.75 ticks)
Probing time = 0.00 sec. (2.52 ticks)
Clique table members: 2654.
MIP emphasis: balance optimality and feasibility.
MIP search method: dynamic search.
Parallel mode: none, using 1 thread.
Root relaxation solution time = 0.01 sec. (10.69 ticks)

        Nodes                                         Cuts/
   Node  Left     Objective  IInf  Best Integer    Best Bound    ItCnt     Gap

*     0+    0                           -0.8802      507.0898              --- 
      0     0      372.1760   161       -0.8802      372.1760      588     --- 
      0     0      349.5293   161       -0.8802     Cuts: 313     1094     --- 
      0     0      339.3541   161       -0.8802     Cuts: 313     1467     --- 
      0     0      333.8536   161       -0.8802     Cuts: 271     1671     --- 
      0     0      329.2559   161       -0.8802     Cuts: 211     1822     --- 
      0     0      327.9837   161       -0.8802     Cuts: 169     1930     --- 
Detecting symmetries...
      0     0      326.4327   161       -0.8802     Cuts: 110     2037     --- 
      0     0      325.1680   161       -0.8802      Cuts: 82     2189     --- 
      0     0      324.3266   161       -0.8802     Cuts: 193     2390     --- 
      0     0      323.8523   161       -0.8802      Cuts: 91     2538     --- 
      0     0      323.1718   161       -0.8802      Cuts: 98     2730     --- 
      0     0      322.7213   161       -0.8802      Cuts: 94     2837     --- 
      0     0      322.6263   161       -0.8802      Cuts: 83     2927     --- 
      0     0      322.4835   161       -0.8802      Cuts: 74     3020     --- 
      0     0      322.1399   161       -0.8802     Cuts: 116     3190     --- 
      0     0      321.8527   161       -0.8802     Cuts: 119     3282     --- 
      0     0      321.8049   161       -0.8802     Cuts: 106     3350     --- 
      0     0      321.7577   161       -0.8802      Cuts: 42     3419     --- 
      0     0      321.7208   161       -0.8802      Cuts: 43     3467     --- 
*     0+    0                          254.2118      321.7208            26.56%
*     0+    0                          254.2123      321.7208            26.56%
*     0+    0                          267.3105      321.7208            20.35%
*     0+    0                          267.3114      321.7208            20.35%
*     0+    0                          267.3612      321.7208            20.33%
      0     0        cutoff            267.3612      321.7208     3467   20.33%
Detecting symmetries...
      0     2      321.7208   221      267.3612      321.7187     3467   20.33%
Elapsed time = 0.58 sec. (605.48 ticks, tree = 0.01 MB, solutions = 5)
     56    58      310.5006    94      267.3612      321.5341     6984   20.26%
*   100+   95                          267.3612      321.5090            20.25%
    112   109      318.5014   150      267.3612      321.5090    11042   20.25%
    180   158      307.4437   113      267.3612      321.5089    14376   20.25%
    303   273      320.9040   203      267.3612      321.2302    17743   20.15%
    415   374      306.3570    91      267.3612      321.2302    22359   20.15%
    529   471      303.9842   111      267.3612      321.1974    27078   20.14%
*   590+  520                          271.1434      321.1974            18.46%
    660   588      278.5297    91      271.1434      321.1551    31726   18.44%
*   690+  598                          274.1316      321.1548            17.15%
    731   631      315.9536   136      274.1316      321.1479    35655   17.15%
    807   696      280.8262    91      274.1316      321.0747    40742   17.12%

Performing restart 1

Repeating presolve.
Tried aggregator 1 time.
MIP Presolve eliminated 1 rows and 0 columns.
MIP Presolve modified 628 coefficients.
Reduced MIP has 854 rows, 965 columns, and 3564 nonzeros.
Reduced MIP has 849 binaries, 67 generals, 0 SOSs, and 0 indicators.
Presolve time = 0.00 sec. (3.49 ticks)
Tried aggregator 1 time.
Reduced MIP has 854 rows, 965 columns, and 3564 nonzeros.
Reduced MIP has 849 binaries, 67 generals, 0 SOSs, and 0 indicators.
Presolve time = 0.00 sec. (2.70 ticks)
Represolve time = 0.02 sec. (17.29 ticks)
    988     0      319.8301   212      274.1316     Cuts: 147    51562   16.67%
    988     0      317.2931   212      274.1316      Cuts: 84    51828   15.74%
    988     0      316.0886   212      274.1316     Cuts: 162    52049   15.31%
    988     0      315.6487   212      274.1316     Cuts: 131    52192   15.14%
    988     0      314.9326   212      274.1316     Cuts: 124    52359   14.88%
    988     0      313.0699   212      274.1316      Cuts: 86    52612   14.20%
*   988+    0                          274.1337      313.0699            14.20%
    988     0        cutoff            274.1337      313.0699    52612   14.20%
    988     0      311.8205   212      274.1337      Cuts: 98    52995   13.75%
    988     0      311.5804   212      274.1337      Cuts: 92    53275   13.66%
    988     0      311.4103   212      274.1337      Cuts: 84    53355   13.60%
    988     0      311.2822   212      274.1337      Cuts: 61    53463   13.55%
    988     0      311.1529   212      274.1337      Cuts: 27    53533   13.50%
    988     0      310.9385   212      274.1337      Cuts: 28    53603   13.43%
    988     0      310.8379   212      274.1337      Cuts: 32    53673   13.39%
    988     0      310.7249   212      274.1337      Cuts: 32    53713   13.35%
    988     0      310.5977   212      274.1337      Cuts: 42    53778   13.30%
    988     0      310.4511   212      274.1337      Cuts: 46    53853   13.25%
    988     0      310.3290   212      274.1337      Cuts: 30    53924   13.20%
    988     0      310.1149   212      274.1337      Cuts: 54    53977   13.13%
    988     0      309.9682   212      274.1337      Cuts: 51    54076   13.07%
    988     0      309.9165   212      274.1337      Cuts: 26    54122   13.05%
    988     0      309.5254   212      274.1337      Cuts: 19    54200   12.91%
    988     0      309.4105   212      274.1337      Cuts: 38    54254   12.87%
    988     0      309.1674   212      274.1337      Cuts: 26    54332   12.78%
    988     0      308.8927   212      274.1337      Cuts: 75    54475   12.68%
    988     0      308.4996   212      274.1337      Cuts: 71    54605   12.54%
    988     0      308.4307   212      274.1337      Cuts: 76    54692   12.51%
    988     0      308.4197   212      274.1337      Cuts: 42    54719   12.51%
    988     0      308.3871   212      274.1337      Cuts: 34    54754   12.50%
    988     0      308.3869   212      274.1337       Cuts: 6    54765   12.50%
*   988+    0                          274.1341      308.3869            12.49%
*   988+    0                          274.1341      308.3869            12.49%
    988     0      308.3869   212      274.1341   ZeroHalf: 1    54766   12.49%
    988     2      308.3869   217      274.1341      308.3561    54766   12.48%
Elapsed time = 5.46 sec. (6203.28 ticks, tree = 0.01 MB, solutions = 11)
    999    13      297.7516   124      274.1341      307.8878    56488   12.31%
*  1048+   41                          284.8823      307.7719             8.03%
   1086    69      294.4444   131      284.8823      307.6911    63096    8.01%
*  1148+  119                          284.8835      306.7760             7.68%
   1234   175      297.7516   159      284.8835      299.9098    72261    5.27%
*  1268+  173                          287.3300      299.8349             4.35%
*  1278+  181                          287.4113      299.8349             4.32%
   1339   190        cutoff            287.4113      298.9555    82519    4.02%
*  1378+  178                          287.4119      297.9843             3.68%
   1402   172      287.4153    27      287.4119      297.6413    92661    3.56%
   1509   151      288.1151   135      287.4119      294.7920   103920    2.57%
*  1756    69      integral     0      287.4120      288.3257   115565    0.32%
   1785    46        cutoff            287.4120      287.4171   116110    0.00%

GUB cover cuts applied:  6
Clique cuts applied:  150
Cover cuts applied:  3
Implied bound cuts applied:  50
Flow cuts applied:  16
Mixed integer rounding cuts applied:  83
Zero-half cuts applied:  41
Lift and project cuts applied:  17
Gomory fractional cuts applied:  2

Root node processing (before b&c):
  Real time             =    0.58 sec. (603.52 ticks)
Sequential b&c:
  Real time             =    9.96 sec. (12318.58 ticks)
                          ------------
Total (root+branch&cut) =   10.54 sec. (12922.10 ticks)

Solution pool: 18 solutions saved.

MIP - Integer optimal, tolerance (0.0001/1e-06):  Objective =  2.8741195734e+02
Current MIP best bound =  2.8741710673e+02 (gap = 0.00514939, 0.00%)
Solution time =   10.54 sec.  Iterations = 116110  Nodes = 1786 (46)
Deterministic time = 12922.11 ticks  (1226.27 ticks/sec)


Incumbent solution
Variable Name           Solution Value
F                           300.000000
f1                            0.908043
f2                           11.680000
y32                           1.000000
y110                          1.000000
y144                          1.000000
y206                          1.000000
y147                          1.000000
y177                          1.000000
y92                           1.000000
y196                          1.000000
y298                          1.000000
y318                          1.000000
y75                           1.000000
y15                           1.000000
y34                           1.000000
y88                           1.000000
y224                          1.000000
y18                           1.000000
y302                          1.000000
s17                           6.000000
s19                           6.000000
s31                           6.000000
s32                           6.669723
s40                           6.000000
s45                           6.000000
s72                           6.000000
s78                           6.000000
s110                          6.387548
s124                          6.000000
s135                          6.000000
s140                          6.000000
s144                          6.699741
s200                          6.000000
s203                          6.000000
s206                          6.232476
s264                          6.000000
s267                          6.000000
s327                          6.000000
s330                          6.000000
s28                           6.010000
s126                          6.080000
s147                          6.974777
s177                          6.376284
s234                          6.220000
s67                           6.370000
s321                          6.390000
s317                          6.400000
s289                          6.420000
s148                          6.460000
s92                           6.643448
s315                          6.530000
s196                          7.579497
s29                           6.920000
s298                          7.937975
s318                          7.498849
s183                          7.000000
s16                           7.010000
s3                            7.100000
s75                           7.553585
s15                           7.173130
s34                           8.128950
s153                          7.180000
s185                          7.200000
s88                           8.161919
s224                          8.191986
s18                           7.843225
s302                          7.806117
s83                           7.250000
x193x110x1                    2.000000
x285x144x1                    1.000000
x263x15x1                     2.000000
x86x318x1                     1.000000
x231x177x1                    1.000000
x229x92x1                     1.000000
x73x196x2                     1.000000
x335x144x2                    1.000000
x335x147x2                    1.000000
x285x32x2                     1.000000
x225x206x2                    1.000000
x229x32x2                     1.000000
x73x75x3                      1.000000
x86x147x3                     1.000000
x250x177x3                    1.000000
x225x206x3                    1.000000
x231x92x3                     1.000000
x32x34x2                      2.000000
x110x196x1                    1.000000
x110x298x1                    1.000000
x144x298x1                    1.000000
x144x88x2                     1.000000
x206x302x2                    1.000000
x206x75x3                     1.000000
x147x0x2                      1.000000
x147x88x3                     1.000000
x177x318x1                    1.000000
x177x302x3                    1.000000
x92x18x1                      1.000000
x92x18x3                      1.000000
x196x0x1                      1.000000
x196x0x2                      1.000000
x298x0x1                      2.000000
x318x0x1                      2.000000
x75x0x3                       2.000000
x15x224x1                     2.000000
x34x0x2                       2.000000
x88x0x2                       1.000000
x88x0x3                       1.000000
x224x0x1                      2.000000
x18x0x1                       1.000000
x18x0x3                       1.000000
x302x0x2                      1.000000
x302x0x3                      1.000000
s193                          5.088035
z193z110z1                    1.000000
z193z298z1                    1.000000
z193z318z1                    1.000000
z193z15z1                     1.000000
z193z185z1                    1.000000
z193z224z1                    1.000000
z193z83z1                     1.000000
s73                           5.264621
z73z196z2                     1.000000
z73z75z3                      1.000000
s335                          5.401809
z335z144z2                    1.000000
z335z147z2                    1.000000
s285                          5.294719
z285z32z2                     1.000000
z285z144z1                    1.000000
z285z298z1                    1.000000
z285z318z1                    1.000000
z285z15z1                     1.000000
z285z34z2                     1.000000
z285z185z1                    1.000000
z285z224z1                    1.000000
z285z83z1                     1.000000
s263                          5.300000
z263z15z1                     1.000000
z263z185z1                    1.000000
z263z224z1                    1.000000
z263z83z1                     1.000000
s86                           5.420000
z86z147z3                     1.000000
z86z318z1                     1.000000
z86z75z3                      1.000000
s250                          3.698480
z250z31z3                     1.000000
z250z124z3                    1.000000
z250z203z3                    1.000000
z250z28z3                     1.000000
z250z177z3                    1.000000
z250z67z3                     1.000000
z250z75z3                     1.000000
z250z153z3                    1.000000
s225                          4.821570
z225z206z2                    1.000000
z225z206z3                    1.000000
z225z75z3                     1.000000
z225z34z2                     1.000000
z225z153z3                    1.000000
s231                          4.866670
z231z177z1                    1.000000
z231z92z3                     1.000000
z231z298z1                    1.000000
z231z318z1                    1.000000
z231z75z3                     1.000000
z231z15z1                     1.000000
z231z153z3                    1.000000
z231z185z1                    1.000000
z231z224z1                    1.000000
z231z83z1                     1.000000
s229                          4.832510
z229z32z2                     1.000000
z229z92z1                     1.000000
z229z298z1                    1.000000
z229z318z1                    1.000000
z229z15z1                     1.000000
z229z34z2                     1.000000
z229z185z1                    1.000000
z229z224z1                    1.000000
z229z83z1                     1.000000
z32z34z2                      1.000000
z110z196z1                    1.000000
z110z298z1                    1.000000
z144z298z1                    1.000000
z144z88z2                     1.000000
z206z75z3                     1.000000
z206z302z2                    1.000000
z147z88z3                     1.000000
z177z318z1                    1.000000
z177z302z3                    1.000000
z92z18z1                      1.000000
z92z18z3                      1.000000
z15z224z1                     1.000000
All other variables in the range 1-2179 are 0.
